(set-info :status unsat)
(declare-codatatypes ((T 0)) ((
  (f0)
  (f1 (proj0f1 T))
  (f2 (proj0f2 T) (proj1f2 T) (proj2f2 T) (proj3f2 T))
  (f3 (proj0f3 T) (proj1f3 T) (proj2f3 T)))))
(assert (exists ((y4578 T) (y4579 T) (y4608 T) (y4609 T) (y4574 T) (y4576 T) (y4577 T) (y4606 T) (y4607 T) (y4604 T) (y4605 T) (y4602 T) (y4629 T) (y4600 T) (y4601 T) (y4624 T) (y4625 T) (y4626 T) (y4627 T) (y4620 T) (y4621 T) (y4622 T) (y4623 T) (y4596 T) (y4597 T) (y4594 T) (y4592 T) (y4590 T) (y4591 T) (y4599 T) (y4632 T) (y4631 T) (y4630 T) (y4628 T) (y4614 T) (y4617 T) (y4616 T) (y4611 T) (y4610 T) (y4613 T) (y4612 T) (y4618 T) (y4585 T) (y4584 T) (y4587 T) (y4581 T) (y4580 T) (y4583 T) (y4582 T) (y4589 T) (y4588 T)) (forall ((x4642 T) (x4638 T) (x4640 T) (x4633 T) (x4636 T) (x4641 T) (x4634 T) (x4635 T) (x4639 T)) 
  (or 
    (and (= y4574 (f3 y4574 x4635 x4635)) (= x4636 (f3 x4636 x4635 x4635)) (distinct y4574 x4636)) 
    (and (= y4576 (f3 y4578 (f1 (f2 y4576 y4576 x4635 x4635)) (f2 x4635 x4635 x4635 x4635))) (= y4578 (f2 y4579 (f2 (f1 x4635) (f3 x4635 x4635 x4635) x4635 (f2 x4635 x4635 x4635 x4635)) (f1 (f2 x4635 x4635 x4635 x4635)) (f1 x4635))) (= y4579 (f3 y4580 x4635 (f3 (f1 x4635) x4635 x4635))) (= y4580 (f1 y4581)) (= y4581 (f1 y4576)) (= y4577 (f3 y4582 (f1 (f2 y4577 y4577 x4635 x4635)) (f2 x4635 x4635 x4635 x4635))) (= y4582 (f2 y4583 (f2 (f1 x4635) (f3 x4635 x4635 x4635) x4635 (f2 x4635 x4635 x4635 x4635)) (f1 (f2 x4635 x4635 x4635 x4635)) (f1 x4635))) (= y4583 (f3 y4584 x4635 (f3 (f1 x4635) x4635 x4635))) (= y4584 (f1 y4585)) (= y4585 (f1 y4577)) (distinct y4576 y4577)) 
    (and (= x4638 (f3 y4588 x4638 (f3 (f3 x4635 x4635 x4635) (f1 x4635) (f3 x4635 x4635 x4635)))) (= y4588 (f3 y4589 x4635 x4635)) (= y4589 (f1 y4590)) (= y4590 (f2 x4638 x4635 x4638 x4635)) (= y4587 (f3 y4591 y4587 (f3 (f3 x4635 x4635 x4635) (f1 x4635) (f3 x4635 x4635 x4635)))) (= y4591 (f3 y4592 x4635 x4635)) (= y4592 (f1 x4633)) (= x4633 (f2 y4587 x4635 y4587 x4635)) (distinct x4638 y4587)) 
    (and (= y4594 (f2 y4596 (f3 x4635 x4635 x4635) (f3 x4635 x4635 x4635) (f1 x4635))) (= y4596 (f3 y4594 x4635 x4635)) (= x4642 (f2 y4597 (f3 x4635 x4635 x4635) (f3 x4635 x4635 x4635) (f1 x4635))) (= y4597 (f3 x4642 x4635 x4635)) (distinct y4594 x4642)) 
    (and (= x4641 (f1 x4641)) (= y4599 (f1 y4599)) (distinct x4641 y4599)) 
    (and (= y4600 (f3 y4602 (f2 (f3 x4635 x4635 x4635) x4635 (f1 (f2 x4635 x4635 x4635 x4635)) (f1 x4635)) (f2 x4635 (f3 (f2 (f3 x4635 x4635 x4635) (f2 x4635 x4635 x4635 x4635) (f1 x4635) (f1 x4635)) (f2 x4635 x4635 x4635 x4635) x4635) (f2 (f2 x4635 x4635 x4635 x4635) x4635 (f1 x4635) x4635) x4635))) (= y4602 (f3 (f1 (f2 (f2 y4600 x4635 x4635 x4635) x4635 x4635 x4635)) x4640 (f2 x4635 x4635 x4635 (f3 x4635 x4635 x4635)))) (= x4640 (f2 y4604 x4635 (f3 x4635 x4635 x4635) (f1 x4635))) (= y4604 (f1 y4605)) (= y4605 (f2 y4600 x4635 x4635 x4635)) (= y4601 (f3 y4606 (f2 (f3 x4635 x4635 x4635) x4635 (f1 (f2 x4635 x4635 x4635 x4635)) (f1 x4635)) (f2 x4635 (f3 (f2 (f3 x4635 x4635 x4635) (f2 x4635 x4635 x4635 x4635) (f1 x4635) (f1 x4635)) (f2 x4635 x4635 x4635 x4635) x4635) (f2 (f2 x4635 x4635 x4635 x4635) x4635 (f1 x4635) x4635) x4635))) (= y4606 (f3 (f1 (f2 (f2 y4601 x4635 x4635 x4635) x4635 x4635 x4635)) y4607 (f2 x4635 x4635 x4635 (f3 x4635 x4635 x4635)))) (= y4607 (f2 y4608 x4635 (f3 x4635 x4635 x4635) (f1 x4635))) (= y4608 (f1 y4609)) (= y4609 (f2 y4601 x4635 x4635 x4635)) (distinct y4600 y4601)) 
    (and (= y4610 (f2 y4612 (f3 x4635 x4635 x4635) (f2 x4635 x4635 x4635 x4635) x4635)) (= y4612 (f1 y4613)) (= y4613 (f2 y4614 (f3 x4635 x4635 x4635) x4635 x4635)) (= y4614 (f2 y4610 x4635 x4635 x4635)) (= y4611 (f2 x4634 (f3 x4635 x4635 x4635) (f2 x4635 x4635 x4635 x4635) x4635)) (= x4634 (f1 y4616)) (= y4616 (f2 y4617 (f3 x4635 x4635 x4635) x4635 x4635)) (= y4617 (f2 y4611 x4635 x4635 x4635)) (distinct y4610 y4611)) 
    (and (= y4618 (f2 (f1 (f3 (f1 y4618) (f3 x4635 x4635 x4635) (f3 x4635 x4635 x4635))) y4620 (f2 x4635 (f1 (f3 x4635 (f2 x4635 x4635 x4635 x4635) (f1 x4635))) (f2 x4635 x4635 x4635 x4635) (f3 (f2 x4635 x4635 x4635 x4635) x4635 (f3 x4635 x4635 x4635))) (f1 (f3 x4635 (f1 x4635) (f2 x4635 x4635 x4635 x4635))))) (= y4620 (f1 y4621)) (= y4621 (f3 y4622 (f1 (f1 x4635)) (f2 x4635 (f3 x4635 x4635 x4635) (f2 x4635 x4635 x4635 x4635) (f2 x4635 x4635 x4635 x4635)))) (= y4622 (f3 y4623 (f1 x4635) x4635)) (= y4623 (f3 y4618 x4635 x4635)) (= x4639 (f2 (f1 (f3 (f1 x4639) (f3 x4635 x4635 x4635) (f3 x4635 x4635 x4635))) y4624 (f2 x4635 (f1 (f3 x4635 (f2 x4635 x4635 x4635 x4635) (f1 x4635))) (f2 x4635 x4635 x4635 x4635) (f3 (f2 x4635 x4635 x4635 x4635) x4635 (f3 x4635 x4635 x4635))) (f1 (f3 x4635 (f1 x4635) (f2 x4635 x4635 x4635 x4635))))) (= y4624 (f1 y4625)) (= y4625 (f3 y4626 (f1 (f1 x4635)) (f2 x4635 (f3 x4635 x4635 x4635) (f2 x4635 x4635 x4635 x4635) (f2 x4635 x4635 x4635 x4635)))) (= y4626 (f3 y4627 (f1 x4635) x4635)) (= y4627 (f3 x4639 x4635 x4635)) (distinct y4618 x4639)) 
    (and (= y4628 (f3 (f3 (f1 (f3 y4628 x4635 x4635)) x4635 (f3 (f2 x4635 x4635 x4635 x4635) x4635 x4635)) (f1 y4630) (f2 (f1 x4635) (f1 (f2 x4635 x4635 x4635 x4635)) (f3 x4635 x4635 x4635) (f2 x4635 x4635 x4635 x4635)))) (= y4630 (f3 (f3 y4628 x4635 x4635) y4631 (f2 x4635 x4635 x4635 x4635))) (= y4631 (f1 y4628)) (= y4629 (f3 (f3 (f1 (f3 y4629 x4635 x4635)) x4635 (f3 (f2 x4635 x4635 x4635 x4635) x4635 x4635)) (f1 (f3 (f3 y4629 x4635 x4635) y4632 (f2 x4635 x4635 x4635 x4635))) (f2 (f1 x4635) (f1 (f2 x4635 x4635 x4635 x4635)) (f3 x4635 x4635 x4635) (f2 x4635 x4635 x4635 x4635)))) (= y4632 (f1 y4629)) (distinct y4628 y4629))))))
(check-sat)
